c CNF file generated from BLIF2CNF script.
c Original BLIF file was -
p cnf 20 49
-1 -13 0
-2 -13 0
4 -13 0
5 -13 0
13 1 2 -4 -5  0
-13 12 0
-1 -14 0
-2 -14 0
3 -14 0
-5 -14 0
14 1 2 -3 5  0
-14 12 0
-1 -15 0
2 -15 0
-5 -15 0
6 -15 0
15 1 -2 5 -6  0
-15 12 0
-1 -16 0
2 -16 0
5 -16 0
7 -16 0
16 1 -2 -5 -7  0
-16 12 0
1 -17 0
-2 -17 0
-5 -17 0
8 -17 0
17 -1 2 5 -8  0
-17 12 0
1 -18 0
-2 -18 0
5 -18 0
9 -18 0
18 -1 2 -5 -9  0
-18 12 0
1 -19 0
2 -19 0
-5 -19 0
10 -19 0
19 -1 -2 5 -10  0
-19 12 0
1 -20 0
2 -20 0
5 -20 0
11 -20 0
20 -1 -2 -5 -11  0
-20 12 0
-12 13 14 15 16 17 18 19 20  0
